# Column Metadata
COLUMN_NAME=price
DATA_TYPE=DECIMAL
LENGTH=10
NOT_NULL=false
PRIMARY_KEY=false
UNIQUE=false
DEFAULT_VALUE=
AUTO_INCREMENT=false
# End Metadata
# Data starts below
164.72893583633999
31.196066596961725
379.9549670026148
166.58544740246163
300.5118201384788
44.68031694152728
475.43146598313865
92.58560617671596
19.347997680232034
42.420500647984134
142.9731425627627
404.808161904379
114.15059450328874
56.291396254640084
37.512568011319836
81.84528203211994
1953.2672196558963
19.944134893786035
28.325674017356558
6.461447213189867
45.41605179207497
42.08746664036965
302.48414570925917
421.00731052076736
553.4217520263738
77.40235767529883
73.97742946938622
351.5757238416642
416.03943489819005
56.57309471222827
73.41184416311643
99.01443931567665
90.40831959726219
297.05708114210637
79.51153408437706
97.62572044670824
59.789864841066
192.6845390489933
125.77712119204054
158.0485113302077
258.7197254384888
38.82183893235782
96.41749851862062
16.576974462720692
58.68846502685973
14.863188333638758
59.52217163568102
67.28697771731504
14.817305379191808
79.02381354784912
368.1438320423201
407.03943349358923
482.0351927087994
722.2649792901756
483.6351445762065
42.32542070995389
29.023531522161903
29.050224878749454
498.7557991141888
369.2662130617705
265.4792979827338
39.452865842197056
43.91752995019854
19.0503773981233
27.511269793571287
19.769318907496146
126.89063531405597
139.2485754276376
113.57898556431773
68.1333454520736
176.6343053071087
123.89727731763384
11.196927245178935
8.94039025665531
611.9708433636175
89.70114943789066
41.409157682057085
121.74113598340959
10.56734050143454
15.886341935417116
37.74135862865519
435.7931004023362
478.7267108622031
158.45309602223594
174.11293613983676
2.265212011470565
342.7876615626317
52.063923269820144
37.324989624076906
482.5061303677023
370.31476829276346
196.16417203754287
199.5077740267052
17.053641554161814
472.0163740388004
96.61561444330536
56.96750000324286
756.8666229773876
417.3538902743234
54.38159560429496
28.05633442265084
43.26204018303444
38.3045536923819
58.73380467950064
419.76829468755506
414.21486821809225
375.7444257717863
82.43783156116842
131.5624191702035
325.3973272302846
63.53397978949603
104.90567798678411
45.021166383935686
176.14307506670744
1864.65728358082
396.7382473195397
429.56844032969013
83.37239309263795
83.59799141160133
42.37173504943397
53.640200344818034
185.17169057955027
89.06498466738884
575.2204886785768
71.2891669709251
299.83602151955154
47.79190747843434
20.324314327935873
458.4471595729306
26.52693047716637
725.4868385040946
194.69667691842014
203.31850567218913
198.5043286488979
498.5775631500975
12.468956740290388
1631.1898481243968
174.4966187912317
469.2446849401921
50.09111623576624
1871.2134306643231
1511.0568777244457
149.3065002802335
42.53436659494595
820.9719052384158
1004.0698803494594
30.613360597842863
11.829434830614945
52.36889266945192
403.2133667618409
31.024759102905346
465.8477591612144
246.88285090563204
95.75195471458078
256.7540423561949
51.240320898449504
126.88046229851946
43.30959533356088
163.28135018847655
16.39912491701766
184.41314423567928
299.6276243686162
222.23787504221272
141.34380360351264
31.081869168291
47.067893888473634
27.247221083555868
480.148042319937
70.52232079515028
96.01350990527098
127.31500211601693
1684.744872641683
143.23508404152665
191.37678671130882
900.8304085363967
449.81070073648726
61.11763318791641
78.70699870138503
83.97021235685722
18.02024997876562
57.05919157987193
39.838100262943556
61.89113485803527
124.97513949747466
447.653096180222
55.770379296158545
175.0196862680312
48.21363550145625
115.99779012789382
134.63245791717543
13.451313685733048
184.40229228434487
1726.9381978490514
354.9318098901794
451.83860634046965
483.65574072154965
36.96693402637626
142.71257522392375
40.032796070940414
128.40563202807647
84.7204159152159
332.63778760938953
101.7895484739789
53.55814508270172
217.2430551942766
151.6498838870588
404.8253367825595
64.213879455561
151.16813444675907
495.4177943913311
417.40368060630163
459.7695180956163
193.70318203135832
35.17057892845423
21.090422790823098
461.79513573712035
154.675053720166
450.04223796966994
484.43419931173514
36.74576523585911
18.85899823029743
356.29359173236946
44.76537972190136
95.69128478363157
263.1858160222889
1943.513136882675
371.0823723097667
23.34929588877273
140.96452616722036
43.21332198390319
129.1612246780012
1963.0219165261854
1572.3366535043237
82.24775392060769
36.72482419361625
24.197715438685417
164.91697565095032
1153.5683757070149
11.758570110390803
113.79825682597018
133.69866612371632
152.34716899597638
36.592664536031364
47.0090638959828
17.26082748439513
58.1429332431707
141.85646318808054
466.6308158539011
72.12082651141523
75.9838565385001
21.111952630231173
442.5163339884895
175.73773786897797
159.33657889474182
31.65241507812219
339.56523814924697
199.2025273871354
80.08583079479774
357.2856691067203
115.53770594057315
190.89522081793314
408.97162851293217
78.2870221537548
181.79833924950583
164.50928168752267
53.0387444253768
439.58482775272955
213.69757098624257
491.4784517292416
56.37334521866389
28.58496474384567
677.8922782642309
328.4841381391151
433.52383785501604
241.36455628745207
345.37799277871846
43.55392145203963
100.51626154441342
67.64291596860228
27.043583654933727
55.16333794985964
83.52908696293696
102.59388795468358
158.13491664551293
478.7168915040392
70.0250792580967
182.95430632678185
87.77328284544164
919.5495022600697
234.98687177591384
99.44159781474231
179.86021921764532
389.5707212018841
315.7269408457349
304.48670515876665
1189.113420578714
274.32423915657716
1543.418331793998
1723.4832825810743
61.151058477442135
55.89103142975536
498.66675234047585
245.67508149145075
28.068616549854244
185.63588404337432
114.6401131476004
195.3946020688527
199.13692481132645
122.72056677648033
6.668319078124152
30.60084504489803
34.436814497177295
2.4326045511489074
146.7561751836372
26.777679444453494
87.46557459510174
10.042757097853562
51.1131076393074
88.09176320577501
70.907112106166
415.06627769616193
1307.356033381609
162.69933609033114
85.87204553293822
1620.276948933595
193.5421355856064
215.95664026145107
185.1983523220251
354.275289017633
40.687081778170125
167.05492509572562
143.3465379623394
360.33290832139744
23.89033368773886
157.41344898916697
355.39248523357793
32.61818169067483
56.14573667206564
51.53350682322873
88.28145389045295
18.336957090709063
477.0127485827384
137.39342691618458
628.6330132001711
483.1073576129343
20.765506017818243
265.0639677111484
499.76483696383536
477.72180585752403
28.78478371426181
402.4658771899873
1030.8403020720962
32.44253258520653
55.5519353903253
5.502471300197126
106.24471451468642
113.9675236593397
24.74948940723607
303.5127074424616
10.95181722418836
380.41847425508246
79.35808366347734
22.295125601643125
489.99670788506455
234.06680005597772
179.3446014224376
78.28263206271671
421.12145882971646
185.58668680223394
247.5814396962983
25.25746177048186
51.80923013105282
489.1273190698436
245.75399699081694
183.5345196069241
73.62163412121336
280.96528078323354
438.6876059636776
176.8919088885761
426.20692091337065
83.69697095666041
128.20387384245691
156.04116506538332
602.2742562631764
39.9783245865037
51.52338600298535
33.32137439392749
64.53602106116077
23.775278298087507
175.94008755175534
156.47824321816822
1300.8259278694206
111.74623923189264
96.69631099019506
237.26123736298135
16.134788323821596
468.512089152813
413.8996478006562
480.83151495546616
41.5053528828555
24.619581227624927
1647.0914658883075
23.281518609498832
1846.4403273533176
82.15867946671004
12.780735054422088
359.161212824862
18.26263324274903
161.03118521888618
322.7644477813168
398.1117328684679
89.29194378574431
153.03332662581136
96.37798545364163
317.17712438879744
33.15938958123449
195.31114097025556
845.7128380675574
399.88070758807334
10.11132463588199
42.412504999788666
491.0026116710874
87.6839644720542
233.66288852126385
169.99989701804094
85.96187086226215
18.93754574162985
1989.350381657257
84.5811943428948
1390.511274523239
194.38636135974917
39.80239345318463
166.243443871154
224.4856328637029
919.4916584689328
65.62395800571818
10.367395929834796
15.577746386216239
54.47366722314394
30.400896290907326
226.7200455417105
130.6259723005653
251.27924294483765
399.2945247740179
25.856856585535336
1584.9427417341146
5.654715099463372
681.5281172705312
429.8862529228704
13.19311563107772
75.18957315923758
116.05344558076291
60.740051624222566
1728.588680493848
316.2779045056811
54.782221376279004
3.7193944834828088
165.84833362766162
54.3867802985247
798.3315230233771
89.21111180020674
91.90657433383618
1534.7756098434534
966.4438899860014
231.53388274427004
372.93699133171833
185.10647310586148
67.03548793085406
94.96917832772724
112.78602433951721
183.97062566547362
177.8891032835149
462.6121241589351
72.0445307186155
96.54989012216657
499.89392222043693
92.90779515531995
100.3725101401296
73.87349660596371
74.46677945895371
461.0589207936801
1004.9231724622733
466.89730638330843
461.86660057490747
89.30683302143453
342.0783761785084
31.33211266556564
479.3838275455748
10.524573625571218
208.26516995572953
350.976636807135
103.59571597255021
16.902726744750133
1970.3653639197257
49.08533834390722
238.65943019208257
33.29493002239654
374.3704641245413
515.7084618171087
9.297240627609904
64.35144978028418
14.2220197054698
46.103658831107744
48.71056807988949
389.33757821317386
83.04990576536335
83.24344487560774
1232.985790178247
43.87877027719609
120.17468300346609
29.62172109123434
178.84903250744247
76.83264045071847
199.85116210761413
97.54628720980959
466.94640659231834
122.13131103622182
172.17916603632588
126.21750383451904
338.07756540713063
84.07709909093565
137.087037600885
911.5577195392634
363.3774507060798
39.377246013569035
459.7448372964122
75.19149343468611
118.08489040287773
34.984102998081035
265.1851842136902
75.411621430127
76.36212070708163
100.84969701934938
40.900219479407966
879.7751341235437
166.95888346910291
25.319850444916845
329.77671513961747
381.15072631847096
36.286599190962406
316.34555458057497
40.943702725048944
1876.935043706872
162.6011813851095
54.956190632902164
153.58087511994256
47.026280881481995
162.96401481042057
10.06110028144846
51.433224722537645
142.59344825639448
176.08432941698038
38.39182301374345
83.9371007147661
166.2804043525883
70.61780330850323
1756.9090970336144
496.03554861352103
1642.753405849144
140.24094814498886
353.770868235118
193.4084395431303
174.47963131937416
114.22786532246832
53.736071126797015
65.19000561414367
375.8495344093047
28.749344357524944
39.738291502958646
194.9122861301302
359.77640700636897
270.27454803729296
340.2149949750839
27.953570969440293
161.1696177206683
130.23924662970188
223.3919904372674
213.77857645991995
334.3919444178278
58.014910882712655
81.08809942067201
136.93644029726528
231.11475914059116
53.51611972471434
1613.7328823851349
49.86704375204529
55.97946990297538
247.04265737176348
193.50105640257598
44.1505128040002
169.38586267448176
37.75927085140981
11.951472708706584
184.591940383213
202.3326753540005
18.228816001178455
169.34439143605988
49.989531587521675
288.81490462000266
76.29178619758852
28.103359780446365
55.74792646184191
166.24837129015833
100.43289068940405
254.99227200323696
230.21033020422323
23.07483774693012
256.82598044212295
63.173427507453084
132.2721887257224
306.6483600064132
149.84212961359842
5.029457817436263
375.31666959475865
47.268966650878006
141.34668322641033
53.14701805918291
18.170137184778973
36.326999974718255
24.379145052047583
451.1510811339785
93.06353845924549
106.65311012939817
50.45076496034005
15.837617188461794
18.691644615848062
956.6004749863079
197.03337291501137
72.59282680124454
193.95128303061978
25.142729171090448
255.1960858985604
165.21639057059528
163.65520551336368
94.11211713192588
58.32867663874098
90.28688435733164
71.11368411795722
178.466724644228
125.14377513351647
78.75935719626034
1562.818460416858
136.38151831447283
61.00059373951148
106.65461343160356
287.37267959716144
7.652566262168566
329.3681941744161
213.07663122309432
103.238695966007
34.728146688769954
18.558319598689614
407.4017591756106
120.18956830259106
103.35936612203896
95.32119065128718
84.17288798007634
462.3136158548341
119.39669930953569
201.65965046631808
41.512050381492294
235.49102756295966
195.66809172442436
1600.0676544257249
69.33223321464126
416.4186050478652
183.2156587186607
474.01708370541604
330.79699488187924
14.828286620771703
343.28675840342413
147.95416566233928
36.47250770392211
400.6055178523895
21.507107215810212
69.06109023011554
286.51552285698745
474.64549399858424
82.92712418638195
426.85880438551635
221.58024968384214
144.92109212034023
483.79910890098546
144.51174573563475
223.65858182148818
28.361131692574986
19.839946580683808
772.8973482534999
115.05057463559886
394.3171633476289
110.09056142752931
10.99506652557966
45.22712908022728
7.467857762644009
33.54042217812004
9.028008238865704
36.56286771151309
307.65037292597174
122.59444157450955
85.26544347148959
131.62539333622004
74.12124359002986
251.32582450438827
350.6486500748477
192.9309670034906
161.8305473982969
6.333039329203428
403.53020227812834
122.34803086427956
86.35188467142238
30.06719028225347
14.335615501172194
481.34686503315004
90.12165070331307
29.135324510900066
335.2081845531682
53.130191377751906
433.746910828044
6.021132498766768
340.04146065718834
31.988126895250613
28.758827960170496
99.34308753516267
34.396514047644544
120.2746862437853
85.17263022978723
318.9112237138611
395.9016766171916
35.33553109765509
99.59682222409143
264.25733820764253
314.6854038310361
477.76417230705573
159.98307274821747
97.24924797017401
200.57914978037894
43.59243692669442
18.351293123101343
29.38972464097982
76.06006991797118
15.576621424686447
161.35643545117134
338.61025642379497
1944.8301332331844
16.202394621726167
94.4337982622022
74.40965762920388
4.405842810803987
375.77789456875576
147.62279496635597
35.8396807738969
123.5294241805598
10.064217323980385
138.05976672853222
822.0508919162932
68.53381639505835
44.666623713993005
1408.579240914364
421.92566780080153
182.61012189419466
166.5942980723261
127.20292236329634
87.91765398376624
27.120795123643077
181.45345136230114
350.98336639671686
62.53554314486797
89.61912157241741
196.33482131974964
45.69136044064593
35.44487334506829
260.5648646118483
367.46170587419556
278.7339559506228
87.85280430296487
103.60247029800726
203.7703109539523
120.81279504662442
38.96841821065292
464.76681492928316
406.9466130185944
199.00812665667274
231.36714828903283
15.875181445137558
269.18852680873476
433.53658864143904
327.85681052820104
970.1050626005607
23.766207680279553
408.3439972171015
198.4217578324334
31.27445569837367
151.03557409586
149.8867809290271
51.2350707635634
131.0878321025931
306.86024834312167
449.32212572711694
545.0066152386171
85.3161590070753
341.9167581207889
11.197428624576206
995.9574098175733
39.24291962349574
167.02933523012734
28.04330918326957
252.45629736312253
1353.527113936504
96.20361735452289
24.589695882226977
289.8694299334842
30.299095358283708
1650.9840648010115
343.8346599152622
222.807137409033
73.95339274094931
59.93738290671971
91.69949596431731
74.81399207186625
143.98676251916964
93.67660402107705
90.66197235146672
825.30491651324
435.851407714065
28.275173319746678
33.141204824139606
267.49928918303976
97.35374261399629
59.420888921974445
248.8052314532029
430.8987785072289
180.9976698994542
480.99864580161795
39.182439008978776
18.42597083206907
10.879449847716295
1036.4190514726624
294.96493186571126
643.205405910546
450.25723746732956
407.10527892431463
19.90952006943619
309.91355497083373
17.617187412877435
89.11124007441495
66.30585186019815
171.42763541021415
79.3878118304851
16.746872809790563
1521.7810625116917
446.3733820342704
77.83445023180846
171.19676566806353
105.19637509022523
34.01289312280923
137.0225668479622
402.87097606316433
335.729831253801
641.221398201604
59.893521307682434
385.1992630082721
134.94079570716178
85.07015240736395
21.784194831476206
139.27992342136912
51.75542237272495
58.70411957548178
16.12811353436767
132.69548867035434
180.04505506841556
38.28045331357014
59.86516581525046
11.219629574737299
8.305986564237479
15.964308434395718
106.64161791370546
1082.9980339498363
355.06345322622826
459.67837113176836
127.52127943022191
246.86997660180344
1409.3993591061637
19.91029889006573
15.528662031922757
48.96255177008802
254.30134320190803
5.322970549026508
21.821613669369334
56.13655709742214
33.38635193494679
223.1223901440288
278.8510429524666
133.4670810592731
425.9073685267191
104.22259165030648
85.25685419339165
411.0588727204893
14.299705120391891
7.087871384407343
156.8306083929389
162.28778655601977
1753.3893806754127
31.834595673018605
406.2489105981734
19.959453310444545
130.1206181064093
320.8388259570956
117.84146783079593
431.7572209873559
378.4679184967284
83.83788177851925
23.1389521955978
78.33522451773447
1940.7917329466395
40.21452712612144
7.9676256593971715
290.2893694145109
481.2910653903983
7.819391957140255
28.914489921834704
11.991612546324998
62.075702042627306
63.043836512790875
50.8114053044862
69.80513036815833
50.026105835889986
391.4670866704152
290.4360943474877
25.207555747635027
31.347964038558224
29.182426638695848
17.847060510944992
478.55836133002623
29.538662360537653
45.39586272474881
183.19971689697218
6.96722027466153
10.351971785891944
86.02523903934426
73.52373741468229
283.92791575097567
177.8227069213987
40.291851384033166
31.246573355181233
137.72459435914266
25.988784226365443
32.21258504052304
297.7135380513238
79.40793959836229
106.06022239745185
269.20403193394543
181.4919225069353
80.30358339013927
360.03216182900036
241.9292913363958
127.6328656651336
28.370970666687985
122.82523580026398
465.1571795453221
13.099824516173944
1780.4998768061178
197.87655452752037
48.505631385045696
152.29962520767816
420.6857330775291
31.797094493517626
266.89741297644093
1522.3195621806344
472.8489448071637
378.8098165044203
1862.169955699764
105.6077399717461
132.56333245496845
222.8664735289031
380.87073847030376
49.62893720816994
36.24963632441167
188.65116849768063
152.80647544329045
213.069149768212
40.91846333878471
21.998508646222554
47.076491312336714
468.2351178535861
381.016673058412
1319.7559976173602
92.93406392334845
43.104031799071166
224.70449860627997
157.8455387743551
201.26563908782333
26.63957826285483
179.10482279468204
57.915054603935275
105.23146947272036
94.24870548712346
89.48757950124778
9.493145325768642
284.3017528669339
97.30565646437238
154.75797108458957
45.67769252962753
1803.0022730722085
958.8253060532445
23.525100228836102
592.2642470659723
1456.2647364286518
78.23256968373832
455.68035789063515
1903.67487562438
59.60278519980717
307.0821898682297
15.364209683693087
22.100679160335886
17.41903108834655
26.75090691964525
81.51413657016698
199.06724729528017
1827.2232905874034
488.59494795322945
1403.5812052323981
114.01367873527569
8.297215463559406
69.67270740992788
64.6841668211222
437.2914649506196
214.7540577008589
76.92831690959088
207.8711864764893
387.2069207028431
426.397290284386
177.69125435703063
418.3403932856162
181.4754810639595
96.32438513097235
355.28921340509766
92.8911417027787
433.90024577908883
89.84879901542483
46.609579867209526
1460.657466438538
36.51320484315958
138.38878415953116
266.9480298679806
45.99357767533844
501.55004187282304
338.2894412773691
21.213144885725697
26.705957144841946
154.4241675379181
404.9452144042829
36.17347559971556
60.54653794474909
496.55144596143765
488.45162008982567
12.781127340405202
38.01047031532782
68.81850001914626
166.45865970694877
35.41006319874781
52.65060756280421
35.42700081945213
39.794577477422244
37.16067587989292
14.39671241428472
132.03438722257744
78.72394781820749
9.439935799905182
86.0276936606638
129.6818342260008
40.043438771244226
122.56353603057329
18.76986334335696
377.36336342543456
34.8121875270717
103.23688254909696
29.048292329856405
628.10602583648
57.61132076951851
4.95565637553517
162.84136413011547
829.9964331092124
74.87992635740795
192.73536682029595
318.82481074408184
29.605752105102212
284.6377245410071
45.16001772643143
126.3366649661219
79.47438381528762
33.46444481596082
1164.5708746490236
27.651820583430023
1747.5851492301001
374.27508887161423
18.380746557447964
17.04381080341527
14.8657475173925
36.734236648375585
28.685699401341665
86.95432838297566
15.492349917986779
118.83497568089723
70.25136717032844
40.14096536574645
44.00517863957102
339.6769777793228
84.17965578844782
83.6150573966861
74.27523072781614
15.096366587046925
448.93070811384035
83.60584059654221
102.41106957036996
97.46792077995102
176.63634889141974
309.75654872280063
85.11083351785736
684.6888594958317
98.47924419766247
160.7734148467599
1121.5077385981097
1085.4958145055682
56.83121978355553
91.16341834307048
25.219205279368037
156.4579143328195
103.83863428448664
61.40544044806334
238.1904043408692
54.848745727065
431.7370360615069
132.03556467966428
420.79922413602037
75.95769111274302
354.4606903200712
30.942551889089984
115.63140537213906
2.766187677479934
1273.1178596920709
110.71894701943543
101.56083979504845
34.82847640406747
45.50019889019991
112.27875700420843
106.47214264982415
74.6563028610984
22.776981163488088
33.19527243294597
19.013804580920507
433.56937324695286
29.43821407824871
160.40062769028006
22.264679539709267
1156.2345027021688
96.47130334790384
76.01934094682868
3.8235717153197744
30.59828546463052
1416.9939192027653
82.54815637521686
81.7358457093193
1909.129215833029
149.17174898827992
62.0026372491712
392.2837036864442
702.1304130571349
9.815810047155088
334.4929956396926
212.40909351662103
293.76998376761213
392.626585783009
95.58905667244758
400.04601456563483
39.75895456439934
52.4013527655742
417.53839897220075
56.96295972810124
8.1956764193068
160.15538353587905
257.03835268050625
183.27456703482667
135.46178133340572
96.22420933958381
41.12403017614489
229.44720777173254
81.1823175155723
198.8253936044784
33.2538379445939
30.775768603752546
481.89899454072577
16.305607859753515
279.9911256657724
38.851076097412054
19.21551728629225
75.77987730290728
183.2603691317982
1288.5309319183232
266.3994683992279
241.18911084120148
120.96373572674713
94.4959487905643
130.49562087607674
79.96242355996921
9.84599133846164
16.925766164184044
37.91627367735941
317.63477329151
83.15335754601665
405.2528806365911
159.2247557159639
328.185866686077
483.1032686827122
31.85563937327479
432.4550428173247
965.976766296598
25.101223643855327
108.81616301867358
34.56964590300495
104.69032255874069
60.360577365716125
70.57712120750173
7.584187853755429
19.09199245720248
20.904772766957514
166.6152170394933
106.35245686543138
79.94283290122024
86.31042128826725
573.8231554825775
27.04002071332853
61.2719479910391
73.87484352622843
1309.205870454063
5.179456281558029
9.289970092323767
1451.2912513249885
68.22198914408288
479.09048994353714
1382.8473513857423
463.78812611086784
47.63299947888348
47.510337853708826
63.64397707698256
1990.9924213987981
183.5533105977589
30.23770078515453
408.57448526982125
44.09197857580689
322.70434555357195
494.3031045473094
150.63179019327478
54.778027124240865
1737.8289371683434
61.92646028049643
185.29405927454937
498.7449585768844
108.1191621198469
128.63445427631413
199.24080334394836
43.83639073537868
454.5235079423999
310.02850306731256
36.95502805999371
360.31681859554766
12.988369178184284
57.13290158469945
291.5499590831695
472.0157112130418
363.9769919944595
235.09611429163402
485.8378164215713
21.54928911303841
415.40753817785077
449.29742148179497
223.835635144916
47.46133678771432
477.3676396305121
1098.5569871580246
195.75776430349276
399.79010366973
20.22057242216257
12.590408274233859
53.38440853662813
83.49131482587235
69.70666651632855
36.235805071685064
46.69778979358783
307.8361487341302
1038.4752093335974
492.86371775656517
481.99175883153964
10.84842337100968
191.75677094626252
15.306368841737571
61.52636648991997
1984.3944855452087
97.53792842142627
17.683356505613887
5.325577510879441
233.87258843003693
122.70290536215253
46.82372307922898
64.80257166434114
93.642096168225
70.64741857465881
109.89289936397479
36.993883686389644
140.21841864302817
384.62023966093835
34.05662223490506
17.091521335970384
324.84794071454627
882.007659278759
19.459176773942197
616.6378473291985
263.95611748317424
45.18601972549408
334.66486560470577
33.046829240214876
22.82185266601776
36.158375538854344
48.44308277963443
390.8844089129683
122.4831790964903
1200.2686918950758
1126.213314675743
166.09805222946167
277.67582221222983
47.839815869476084
1460.8996152066466
14.63381903267801
1755.3922331408864
163.1164407749974
115.84795857007542
88.18267101277704
136.56775219309895
57.84241369766349
211.51847671598196
39.7495505737206
37.291627977317425
13.516990823448722
67.38426863091001
20.156167384499724
18.85666987133845
4.422188685522958
482.54924176735943
408.58364615005667
18.450131273652502
5.673545406491721
43.79277013875133
35.02021120016952
64.01127400243843
19.550991336912006
7.145788019597095
86.36749499132077
41.007377084387564
179.23332424687823
86.68428922987725
172.08174528156243
177.95382445656657
137.34694057446697
390.8265997829151
203.04443757490176
492.02635385354836
126.84143426934563
10.124273822741916
144.14587819400595
1528.3842821761525
401.6835379557934
28.86015287362896
294.5892142197442
96.60711346072252
95.48465271092662
377.9499963925784
367.8512058374093
68.89103837675128
473.384777846532
233.3578247974375
1377.3295455086025
47.43894356963691
25.727315500280728
136.68989874679104
975.4278836101588
93.30272507360175
30.114720604318048
904.3937429078952
53.935941622307354
221.68458289198696
24.816965335950083
99.00444994492338
440.8966835871815
158.62998379865397
54.95395060455698
1731.17989777315
5.93508887829908
85.68154629072698
80.203810195318
472.8855113892851
210.00699217266862
11.647550780714122
95.84988196943716
115.2482529878007
215.56071790442599
163.2751316203206
318.728951600724
85.78578891102451
29.79981573594718
40.93978708440919
65.23147696179257
34.19370616320094
5.413327458014507
1491.6471170847465
15.663682408452974
313.6445736071969
466.7842824680183
67.12464433179603
24.10610871176697
49.62702819199047
69.23962170158269
420.59551286831896
185.04659512799827
31.189751386284286
270.8067038815849
578.4377904210905
188.51264630185136
28.793760134060612
56.97507723227226
90.11623610086399
266.5157781939822
468.3687735218921
325.8660466640367
33.22859583679438
198.2333503091724
307.9874623021162
15.154185668291525
25.485716346966527
1151.5505789135575
184.90856787893722
204.58066150032968
107.32458589657483
67.54110709008016
42.12201084782336
33.79438456227898
1122.9906821697502
89.96528224742242
219.55356090589956
92.39486059385011
43.587581159770345
421.1436627831261
104.85379108652936
36.0750040271779
1182.1210479199087
154.0253381320954
94.58925308213125
37.295176193801716
199.90614741076647
146.66794649661222
116.34249102250521
93.84142292828592
157.68747010527693
96.4170249242694
1182.5794338406836
73.48661974491002
84.30328591707337
495.44333421995844
62.7658677841648
194.0476385685319
35.6301257024882
129.47700784786042
134.6042860412258
161.87412032353282
1483.990116281895
392.94008663436665
32.03721435609533
30.307260240607633
27.26579459606173
432.9736613727578
198.3571003149521
856.6921810837688
478.58960323948935
482.2036813699163
39.57517298728405
78.28362313324425
704.6302242278168
37.85421939895739
10.892606303131616
314.89403048881786
75.75696172269461
1405.5431132337071
27.050842141246562
75.64281641238455
140.19617166102188
77.54074215206677
47.09386303271948
41.32744606494645
20.06973560177049
142.8948175386179
22.3872954653621
1831.6016424294708
92.31753331641958
83.70337677785092
178.3298047474522
29.846808073919615
803.3691234036573
278.89514654956304
33.459081606441444
12.166612358671845
298.53314141924034
1646.2454692260137
13.536375238211255
1619.9451334318126
205.45443646945728
966.6191396610759
1474.6398549805565
87.11129767337461
76.46403677917733
324.56738178839686
14.252575273889049
177.73532812575715
127.79286575972282
47.14891314245019
253.93421564429852
362.2861390372552
161.66986338320487
336.7512297986046
17.897209256708642
186.63451800175488
29.409690231637335
312.80455392981776
7.479589009605311
1208.8574023022857
341.7836983995062
15.35577364318487
220.51151579829406
98.06554166704719
337.04395622471355
62.13599931372334
87.14974069775495
399.58820200413743
30.06171370472975
91.9675152622275
286.342737329139
1504.621612606262
71.92509796891869
1996.3367700857773
114.70877173350486
11.68446967645722
451.8004766948755
18.829135494931286
167.60644641601414
239.25699712113638
101.01990046428841
268.29345734539146
62.0718260574787
425.0074137981462
27.424672898615995
423.74258069403186
34.0345702391555
22.994391292364195
394.3614956510071
356.8859249269724
173.65816510938305
210.56114522009858
284.983581798502
41.84715768323598
395.3251232487419
28.985645773108423
129.11562353990047
902.9711001856757
1320.1202148571786
94.28414125482321
96.96460325935428
983.7051103669199
423.5478921921961
1080.3631414042973
94.61375092146955
89.5213382210352
110.96730261934883
46.4675558744726
490.0527148839378
258.05659462110776
163.02159251393348
94.21688500770894
42.300339808970215
150.44408178320762
24.836347631435867
70.955738253641
423.5679237677437
23.250619292630503
331.0022563332923
488.9435093102586
581.6632178159066
66.5514250846756
321.6160231828519
534.0609173290312
425.4417929920162
344.8592697251397
479.29671699790197
49.5162884644443
156.4312807089285
484.5049078350636
129.95201180792736
12.172337121649939
50.809314292982165
263.9797162917092
173.61719229782244
403.409821704116
5.4255018959031895
684.6854376452122
8.695421922605794
340.706991085519
61.6173320277817
72.41069513661749
316.91380881847704
7.141731719670461
118.7615393477567
80.62939836237369
322.9874160146527
190.17425382600317
353.0887562155835
42.69321236100629
95.40879008506616
32.373917192846065
312.27675584783714
393.7618984264535
47.29929884097273
67.61316361863403
90.96672989391881
753.9161614115542
74.52894945991972
75.72078139845277
259.0700316113473
99.82632072020401
127.63870186240084
332.6827253117582
484.8315322159285
67.77658999025752
473.6420726365154
13.880826456056834
98.6542722986005
140.8458651543035
160.23150695944747
15.368735065338958
38.85926171363187
131.2131724565083
83.05419292694961
41.582774365149376
834.6989440130799
32.4845878652725
387.80331864077885
30.138999539625964
40.540447725391296
182.9486138088832
1274.3095354510162
20.48704676916382
39.80256883448976
132.6962836916528
153.48554431205812
8.907800511765819
343.66747668150697
70.1945927642749
99.54701095874418
442.01681250486763
28.230584379639662
321.41983728360157
223.98603041874986
79.99712306257727
42.40434758768621
307.1593069874479
104.4225339296177
31.148041002581703
261.58827920699787
449.5153308314367
145.075492428449
52.32713272338924
285.92458879219305
393.1664236964812
1628.7640844255664
864.2174648899138
55.01839282058587
56.25235958006288
74.17765168613447
88.124535940725
264.6116225163472
8.273065757530901
107.21142255680776
396.8103163933085
373.07115584303784
78.13669859658435
35.61386118935989
161.18370629265186
115.11603315883627
162.10636728589418
187.12671027184084
70.75031399944159
53.18898949352739
387.07208607108043
40.267402529155824
38.10422560572685
781.6805525977098
188.25083061210455
470.39873770373583
269.23037595140386
127.68568429394459
91.09578671497778
497.47008667626574
196.79343643095683
343.9160906436727
165.37178036858364
189.11558935342126
657.6365016754735
17.87030634678495
145.28469911414433
79.2476979037946
73.65579378500937
107.22447445180777
60.72616572810908
142.98395176154983
327.4198159764108
39.38104493203589
324.96236180214913
42.001621442542096
9.139286500615468
87.89777713757792
2.0331541574088092
301.0498979781134
19.21566233039694
396.1834875260138
446.0351004091777
369.7060020113758
86.97980124687662
199.7424221043303
1881.6466753607097
321.09307310546944
65.02971924492016
78.22119180555501
153.3256694427985
449.61489404520796
492.7044427113463
184.61782657615052
37.577512138345924
80.58612196447251
12.794737872424726
98.36075681031055
201.36179301599387
340.4706186012923
111.85806377094215
65.48683688322816
964.8039718783508
59.67060305992412
206.6413311887631
115.0259594584134
163.44341364678394
32.37039590328887
15.680751584985828
16.422530874267032
63.04380466533357
38.60604602587703
61.61262623567705
332.916946788516
366.580569736496
111.38482146539695
82.48038823169927
26.509456374441825
137.0916182424832
39.86149620610272
315.3294476594319
169.64059805216772
57.47437871654565
46.02918314534615
195.6090777132184
68.01898144048506
527.2824556168002
374.4920259866437
178.81965138565315
955.5370403283637
160.02278040580987
186.5155018857952
35.466060267962774
109.13815296538012
12.633398896416155
13.257492673818358
324.6364422319568
281.77490159320257
350.0414924062993
182.1712819227631
421.92911772205025
187.9677810370368
70.58566663577255
58.32759294868464
1203.134565631702
126.8589629639283
20.673629620965695
1282.9723860969416
284.9129848674068
29.850727307170867
193.90840718784753
17.35919831644506
927.3793398510346
37.79118269270471
47.44496646024284
94.69046676290708
431.48881334861943
380.82461543702726
59.23570370586604
125.28251031380921
470.75392928466636
571.8993783242638
219.15698079965648
45.52659615969967
46.14212140525852
38.54718057014458
20.483281127091807
30.21384147625823
191.0805517201726
223.7596440679536
156.93082507044002
220.18012054961207
757.2615199916859
92.75245413142349
247.5560733326756
135.99555541132284
168.42283297293906
87.18317000666417
1903.9963651915305
257.96403908712887
25.825160992808144
188.32276318112696
38.41465910875893
18.637485479949177
111.2020920856069
5.757175083274269
750.1016337950057
35.87573232689786
353.51867496294733
81.88516017720637
44.94199775049006
84.98235106118132
438.40666465160933
269.9939994537782
364.23275102728644
49.91508241620651
78.09349984305906
421.0169560919001
24.56840862490348
479.3217944162711
80.28499399345958
47.28642427209061
98.90493690973656
91.55341307330369
340.77638642618086
92.53894861687134
438.243943519174
11.492451150591934
385.27446274193164
66.76303273058197
27.168574930017204
10.629988637091282
191.99775624358065
171.10372344488522
129.2898366387015
55.655167019399485
286.63237902851563
15.923639649799643
224.694191324771
30.439680303747824
68.4741509008572
101.59790074670471
351.680951942568
72.24461849005638
80.23524826595103
151.98970001367329
21.54999272673562
52.60636097552927
1189.3413640449753
1928.38189882529
20.398913422673246
138.1048550541957
89.82660892869677
77.65533537785818
69.9317647973334
535.170174483818
225.6891761406666
56.995433167425844
228.42965469148209
34.97890808335913
23.40070600657933
49.84528208702157
120.98059212628345
407.8486115801863
367.11601272308735
85.46212337726452
147.8878133847675
36.898587333327754
122.78852001553611
70.5346868137665
13.064375392628877
1984.3868210386913
184.91426888667115
31.820890232704805
12.201084093885896
168.10866244515685
13.273202561286787
28.36812098495534
281.0057349076993
496.3692466305332
153.83489688342382
95.10184702908342
171.01132210706442
33.16628690199941
320.09984981969245
76.66073931816624
67.38701851838408
59.111108537431626
423.48139142672517
94.15346621269146
50.098457522135604
206.40818558632424
314.21677198546286
67.16689227807068
312.601368619279
52.06342101073848
352.0505072849941
28.874766670586666
13.58151566607504
437.7392535489778
175.69947125279296
460.519513502126
48.088466003001734
109.54405560387187
109.17100600804007
9.149976226654001
34.5188922234279
196.74280547931008
39.80913507200961
50.95570155336229
230.75568801110106
23.98165736426116
137.84468464461918
20.783637236390547
482.53815507158765
233.6361955159772
43.049806727808914
305.6625720581482
292.29830115904105
476.1701641124102
100.55268958515398
56.5624507631778
395.33032254324564
256.44045434424703
144.704961331175
128.56380406699068
60.265324158357245
91.97783375851274
480.24678986518904
79.76240245395478
8.37121547360199
185.37987879324268
32.41162146447794
13.095814059029538
85.66894773357049
54.53043205986194
83.05113340524491
144.64621171744696
68.78290266697111
341.7975789976277
408.6070367375907
99.8041181898966
20.744606930311996
177.2646020699797
16.475977085014158
432.2171884411239
67.00342375091809
48.973306627962984
46.482898878732954
106.53472955035457
211.863745984256
487.60050885778725
58.003078219973396
360.85242444231176
15.912656496517977
79.56903229859282
128.6761220228309
179.43623327608907
115.72906619366975
207.0664615065864
98.24886456320976
52.9040792606633
256.66860394860464
223.27639616101274
201.54660320841177
51.74792124550122
8.282302226512648
60.62216031590744
159.48424534569736
135.53043267413815
1454.496095772086
489.92620615626504
310.9216577777143
1787.492050623133
28.57580140744216
151.98983473560583
43.723286591066355
450.16136612701
127.033378575267
1927.6023215382927
71.75755849075564
75.95678687603224
23.66085233614985
70.57401751033109
242.9389042424729
90.62337034250021
94.72235012215458
69.74181746357895
153.23067262103166
371.17791627673944
425.689896373308
52.64609118660376
28.906045874854073
27.067249859325543
171.12612024373104
48.621209827351976
191.96003880778375
166.52710238800552
251.1964275073168
179.96203990653322
260.89820194341723
53.72060105857586
67.68436890877186
352.96437053023925
127.75666942042287
104.07463415085502
149.27830588605974
168.6962725867625
35.15432244122909
176.06996353806585
58.77003137691808
64.60557696509241
77.14724928811049
258.9157110647336
149.04743765411507
17.081795838174372
40.841992289664226
33.194695253310186
81.82793632297277
222.2471511743734
162.101138355075
129.8752991820213
177.50549260324283
222.21935071753896
447.84624418996236
32.756435941156816
33.587931655073085
176.6914678422375
404.6054455655306
378.9513105384817
384.6652703745769
380.679604546677
468.03635686324276
102.37402502070121
80.87656028487201
326.2603395693757
131.0212017509651
42.20187963340547
361.16447569827676
1807.592335289118
230.05249909586522
143.59350849942854
8.210620416121028
31.303732823060656
463.07669799440606
212.9914253325621
1331.4954583256872
41.36750572824196
38.063086795725184
108.92692573732053
47.38564930298368
28.234513622193234
36.94824560177794
1570.284240379784
50.51228912667908
177.66228321116938
203.6747597863454
67.34042275673386
286.26199734913644
131.2024770261682
83.41786767822184
20.596264271732316
166.5285565336476
1075.833455887391
365.3070807148658
96.69566603647733
31.319771290898736
58.83793701367636
114.4853930383378
30.236313639984687
60.42401497711376
2.364002562577774
159.2765146499098
111.89389769070728
22.60275534827996
26.342221223164163
400.8101289472236
44.301172356653
66.11752524229604
43.26647396365256
1745.3439588424412
199.54998390929836
112.71562675646155
318.4832681393805
225.93233948552435
56.34795090714229
83.89793522177334
26.223297307267686
179.1194442473501
122.848613057896
10.769942300992135
152.86521001688826
419.9540614807336
298.5105936795061
159.30160923960005
164.54200313341596
258.63729937549783
63.32840951821579
461.769445151772
257.46281697605207
214.5514943759219
59.45657592585801
495.9592330982769
16.486042785884017
23.262521081489968
95.44891610009563
18.827635792658228
1959.244072027194
93.59654991452614
401.3023727965738
33.588908775961855
1521.7137605984926
50.044038576050454
65.01989154572502
38.87527471198321
121.60151398872614
25.494840110875895
114.44844803471071
245.98360321470747
75.42691252342581
499.30686097251225
422.8989739732246
236.0201069593301
152.1821972203384
385.5197634678235
263.0211119028693
324.97395604343194
85.02078179722962
77.96683707087162
20.58474338592001
69.58108199465376
83.98961987126613
170.38439987155863
149.27959789851806
7.252964571321607
40.14752216914868
104.10846838865417
18.895080930195498
80.62466431005902
189.20613262084908
451.63026023344173
18.140675078099925
5.836664781830994
326.71013324623306
448.9729724335656
1911.2683131193746
184.73858232553115
333.35847214521
95.0686728007419
175.63513519780227
25.222420963421847
439.03386232889017
73.71106909379083
405.41906256725633
533.362221352672
51.112186293726616
174.10506962672756
1582.1619647201464
23.572663525416136
354.4123847390978
11.96935110267744
39.23143077838581
1728.8113685176245
148.66253919960175
60.341150700098275
37.46834321317161
40.246883510095735
29.676924920959127
243.71118341754791
441.8719877325466
72.80468571056332
48.62793974881025
32.661922667964454
49.64361625071743
98.4980473260025
69.21578015805169
197.68226539981472
87.67495551769196
150.59946609482185
87.51552691530077
1409.5061613653654
435.6606459428321
391.0595318157729
237.7494314015136
480.5513615230278
1927.7878601346538
1515.5623745547707
338.78814594971755
34.58294271299832
17.98589091561451
684.5874792668586
89.81995806501517
144.0793679947098
19.95313386820333
476.37910683860315
20.437653895627324
153.53807677556418
98.96555205680146
428.5858752741093
430.975143639266
27.764059027390807
190.97502442641076
1181.6856059538013
730.5668762380977
29.943611301740322
1847.5915091120437
373.6321330428573
304.11691829133963
449.1688143534229
168.5157064902235
50.12510530197499
16.82603368378614
710.3669635399383
984.6597817526331
14.686520660894098
38.28969167644202
93.00794774328074
205.87854932740342
154.09970616620356
31.905831456097715
28.194779168171973
142.26531627649342
21.81700998371629
32.778813584307244
148.69049502061432
48.99493830348225
357.83547713905233
961.5621225246007
47.87570500162639
1189.4481269504854
16.981636758699718
39.95112669076606
201.99757791023816
236.29873296764322
23.20750085149151
49.59072215652402
191.93224922170893
1845.9436608486596
116.800242196143
18.233632700818365
28.66278465135539
26.284463912942773
251.57828235625874
156.72455503879596
16.132434244545784
36.67461641390618
178.60399507729392
100.92838072072374
164.06640185552732
467.03487479078365
27.860920843497013
207.229265771497
23.60404817736257
491.6441670922965
55.15338837870029
889.0293221406844
164.50570473998258
148.22842288797898
8.186561229493666
49.571745567423704
317.58512673163955
298.4615797992912
5.377904986084448
111.93977536177754
41.27889293450131
1902.9035452839812
989.1103761824407
305.3509691130615
202.25226176388634
461.6342084063579
160.81841222456936
379.872453888446
98.01211272163464
368.407041462164
223.43763980707234
111.96831752650628
132.80717198134266
158.24987271639057
1132.8624051684562
146.2400901216912
71.65476333568198
289.56637994271364
83.370242155825
48.44260965383455
6.609310143755861
788.0261640368187
16.33969405530356
30.268747034300468
68.99947123995715
104.87888431890315
37.825368957544136
410.3530655283933
293.68844163203596
1646.3109535218775
275.53937389552226
427.720200344949
58.24216618658911
55.82168425871707
138.54981274854202
66.3135344744521
1292.1665975953981
173.83360566657254
185.21423496593462
262.5168113109737
26.710265435734165
121.1358103937128
14.335278031500106
287.7874069423072
34.898626263652666
132.80224845903885
81.03243092681191
46.766987496225745
98.09412838742614
48.84825756106895
364.4286646696963
166.04566541724543
44.11623571967353
36.83453165603089
393.04753596537694
54.214723595410696
24.251010418839492
194.20292857340138
25.23996674790032
294.72147395081976
470.1605612072004
417.52860302326167
90.29218082197461
38.65794909628578
291.11797312339223
42.711536678849924
775.2223058682949
48.23307287656452
84.45924463981204
495.2567282127913
38.513711823107755
177.95196198583463
48.51118458535652
312.6716822913561
109.11648867991272
1471.0117962625363
444.48431950301244
63.85582953691544
103.6824858459897
495.38762023749723
312.18885795819074
176.79513459033555
1272.9489118746267
37.2928353202712
116.38775977288358
75.46020256415171
38.80396128882941
429.88182578551636
160.6871277472631
88.53153054334105
841.7873723280719
45.46439466666055
192.44052399798113
192.50854854722692
1417.9740582584666
188.64003035850817
409.87250044998757
244.59496598240207
405.7524918126618
261.5366735931542
67.80056004979895
88.95728350504366
143.5503025462385
228.6307438895346
35.08322163406408
304.7402795594354
140.41437789299556
668.0789133143096
219.27449255266876
13.00358477924876
171.9544399458554
18.808047570592894
21.7927007963999
178.15262765860393
90.3305237556331
403.9368581010856
44.67385640898879
239.88713978008326
189.0410025410133
111.19011454089373
44.574611804384
186.4576616966084
379.13599029939024
8.43039409004477
30.664067267962643
27.6249678954184
183.2820983646995
72.0897988130873
122.15712599770863
415.5791648356028
236.34279685426134
96.39718274223519
1958.2878605319154
156.8328390788699
1825.2429768745826
99.16045453249721
239.7187892494437
340.76020124248487
72.54355315135027
95.9048893987385
224.6628434047081
367.4817365900631
1619.575492691832
1103.0214506926138
98.43874918627927
196.27955412459264
133.8977249160465
145.3540645631664
151.41347213422364
359.49947467522446
43.91783172746246
388.03953216038957
61.97210400151446
450.70725747835
17.046285395122425
445.6458026260175
144.16155875848222
46.82769944255131
236.82215405292715
26.089396698128056
38.235345103663775
228.76243003399247
425.69030343466744
174.0536645296623
1336.8188046749099
56.398363605018716
8.843848793260959
12.044841931044296
371.86713608398526
24.161124303187158
164.5533622474566
1550.2208991318353
20.385617880152658
5.261725163550116
344.31146249702056
136.16273532089934
253.083587415139
46.506377983941995
160.56919438155424
179.33693511563905
163.31852531671262
84.70272083657053
122.16993518613283
277.55383712245276
9.468676183313809
6.120632038884426
4.6324985799276135
200.35787206678864
430.8861312009828
79.94003113279189
39.09134389284851
212.0677617330181
280.79616096968033
13.467949278978955
284.2264715150519
286.93799127226754
335.72945820232337
30.95650332105294
7.357261466275013
177.2711823953946
100.87883450569542
33.82978072239782
328.29433005707796
13.105724759832771
210.15360134057903
62.35250903119066
63.172681048027385
420.9049197926088
37.62360597484044
105.51958801109146
74.1382599738172
211.52201748587018
166.90596801829483
34.80392844211558
385.2687765196014
62.50246844544146
20.704359082868105
1828.4017299043567
62.76703227136854
42.423486403492035
253.89374283608313
94.06556730601116
57.68436691595847
113.30096577843
137.81966546326856
448.9952853270615
123.65591430767236
31.70839337633968
17.08030734918979
401.2208219081861
185.7933014056857
37.597919994895186
46.088520982266765
9.82797206752611
412.0002144443984
44.8668663833258
11.772810194555115
136.59050268035065
24.52618157841799
66.21159957522987
134.31295541086178
34.09549512908563
35.30392183313286
36.254617596506975
163.42341693722707
239.88245039770067
20.765419068849518
15.368807401128631
48.184758831218254
43.04304176891415
406.84745816815683
35.839135822439935
398.638891976239
31.960210111817794
61.055529273845956
382.1125475574213
1950.4880079075565
56.70177282044945
95.63047362154884
85.10497113514776
48.63062141793333
103.10824916554299
8.004445656298785
439.7600728448989
129.0563827502267
1718.935515834156
8.998745289391508
141.36147791701651
18.212445644217322
175.7182431524936
29.2552899800718
203.81244678449605
79.7561107642708
106.98535521537188
288.5588271245418
132.65366484635138
756.7446840813805
160.75183835353243
1919.789405038565
19.41124584600811
42.74481788309171
21.54994598153657
28.412400678388547
207.08621853161827
36.585180841606075
48.0185013117852
34.21113340738023
59.753575231441815
61.303738198817285
168.16159268611693
18.850025421533093
1128.6442281839581
1535.0569380018892
16.43959273941681
63.16406248520119
109.62140382239345
48.532619290671356
102.64621300597884
19.000360899839066
1441.2923686471831
1257.4242986493634
80.53689742929669
96.02696801278715
493.6038301786292
258.4090077010371
96.08807748553437
27.391388234572588
148.81956976511387
220.40875294319198
121.06972890848802
23.257428991849032
1861.1471340376197
747.2236125458195
197.45772949165035
309.546377207434
17.880042412098497
102.70304901586292
86.5998642815741
97.75306071628114
82.45899504855238
96.0432752595026
22.960995188919803
764.6849423756556
174.8388885150995
1413.2882706543317
32.9797480126126
1230.9445200886053
139.47154014248852
283.73765948575107
37.43209599319201
11.830175085892638
1774.5369337997954
291.02879278617183
52.95391707649778
4.610961206303008
375.1510234353185
212.29668734516972
31.985292307422366
149.6184868289936
61.22743560320478
332.5705064533602
34.424612733579885
273.9732313628144
468.7588129684677
1420.2706569146508
84.5430244948906
1068.8850760359032
95.99543588213312
48.19796688165029
111.23389859577267
25.644408587838058
490.88603811165757
6.287749129454294
92.34728719977429
361.75407286340777
67.87091592342608
11.540704307592248
359.8645806894531
27.301799218998063
341.0751133377597
6.515916619317554
160.60657687924498
69.68099466268154
23.398408359695917
30.176408381629397
41.76921556522922
125.49938230244366
52.508683317940836
3.7413289634950324
42.67149793792453
236.72995464663666
387.5899668332613
1963.0619316538834
22.971685405221223
889.0959210630317
66.20659242924097
39.28586225341051
50.585224895402064
1514.7018696315306
285.54793831207047
68.383178460192
54.233882958076684
426.29917694654984
179.3605051591588
86.76081991992326
27.823449050764957
410.7357948124372
62.46733706874951
1360.7672401538146
89.76460554731725
130.74961582490835
18.469153918030315
19.99959457618123
71.86539171070251
169.46040712872073
90.50615486113855
116.83533978989963
1721.474948209475
394.297710995306
400.97407773896515
359.8209077875418
180.00693829512176
150.71964770761315
35.689587763627806
426.19189060696095
47.14221949925883
1368.3126316566875
30.30217437272507
176.99283240226262
44.0091472276173
107.73623174293684
94.43036927907295
15.026664608681322
148.322665054886
38.93792906566955
291.73025070270154
295.25114026343056
19.03901109886644
298.3483467363991
92.96233050317947
34.40713070550969
178.92597930766638
232.23936656181502
15.709399321554017
330.0831576531879
187.6413484516395
356.8755153213459
336.84225750298623
108.4730961762207
485.0502529753025
135.41823971321412
332.2734905092437
158.1072364473074
39.67335753151787
62.10266723759809
492.58872691633695
481.8221510182002
197.72145974504755
150.3855444096972
29.984537168347437
23.419146389747958
314.2761513442401
18.498078228299917
67.21825602053656
23.580588332391343
84.59063738668536
75.79197736319679
175.6116135998537
225.06105680530658
423.6276841465113
1079.6372907022944
298.3431983785617
436.98803321333656
60.114503889787485
137.09244435011652
1700.6679824217138
34.469107894591744
364.5661782845844
139.51514291016736
94.03926950688283
232.01812432000705
23.164383631311097
17.884266729589577
19.055759506807426
98.97257254180346
339.4005656679574
16.4277102327006
84.42474926128357
18.922887734557804
271.18457939101853
124.66741542255156
261.02843610574877
27.36264282163196
93.00994388552274
130.33497796686555
11.578072794835906
45.82465113217632
1933.8976075440473
261.3593980363163
478.62164777815104
67.84905933610239
256.56167384144356
24.654515970615215
411.9065801978538
1273.1745438688033
317.367412658171
145.98223929172536
163.87262149309154
615.6356648166459
234.28541624831385
117.65679053026383
68.52878455579408
20.566722740005147
249.98839000088003
181.3223549456698
262.6876901475689
20.90766507576064
11.938362017882627
36.53380424527049
953.6341647774126
62.20516890260323
13.258150484667807
45.750666052026475
90.42006118642979
115.28816516085578
53.154231814223365
104.9051598403547
133.89756485854113
312.1567140062992
329.85981740077096
380.44885439882125
128.00384049135238
114.49669770011836
10.934981010982415
439.72627796249384
11.622539338869466
237.69136729536638
7.031520675546195
97.1837608952455
16.697038688843918
309.0060939301702
491.56084154520516
43.88588861283312
15.717392393098004
677.9102829876043
394.42297608873304
118.56480204789727
365.8084907958487
91.56937777430207
299.36258524597474
1062.193327029142
22.21083686701383
104.1595267586822
172.1055601136281
51.25690720640003
84.01229950998386
151.05783938230272
65.21253617226776
167.01725491479672
1063.095785631803
392.9081841809406
194.01361912242552
1372.270567357765
31.643233018967894
78.6457091356788
310.27542382536245
96.93398307672105
769.644764116387
98.5641094233999
318.4652184291759
98.61289468236411
45.077057864331444
68.14913105842132
127.92510213619414
449.96471587788494
460.94227405841224
106.84736571585091
22.602050302709962
145.67871541321
346.3114250546856
468.98103634875423
50.44270661896333
14.9685769663467
197.0166671924699
173.22053425267364
30.473157412481513
162.04442957693303
1003.1801316781135
181.77891548400484
82.93536172216515
149.40483844979443
140.4908552478019
360.228593272472
650.1427888222144
85.02364035484827
64.59881786297038
148.87638450990005
23.49826894928513
531.4806377673642
99.77207051470799
472.8400330196635
20.902834637896596
189.02159721246332
16.154290297064858
61.54492611338939
9.449225336418356
51.9721157261521
39.293872925137755
1031.5593480774503
262.26192167813116
108.70940298920789
175.44707956971607
33.1365417403093
46.79098139909788
91.25939020199401
177.45972723564466
47.5975807985847
9.836926219527209
97.37358062339729
27.633468926652057
1782.3624691920666
472.115768338782
21.66977178704324
108.14276409457169
288.5176855316879
142.77465309766052
470.1066756632086
411.3813637012047
10.982254834886845
86.59925378364285
34.14433862027559
166.45047390335642
180.87088516961262
52.51736679324967
25.46971907983238
51.89865474880811
18.455858043851293
46.63907746686447
108.22925450277052
493.86796745981894
66.33722143169939
140.23805763252577
350.0750212117694
77.6498731711191
281.3668374940794
138.87764576124093
353.372597711897
94.4056006552964
91.67307656989834
234.30893206932186
336.27175029666125
87.54155076743801
17.417330813798156
192.900594407117
464.06353835190225
792.1620527802368
181.43194102913336
15.523692247302964
282.1556481627088
137.9945139337911
23.16499718254204
39.01816333630549
485.24731532101674
4.90931826643444
403.25555907545004
58.499687885116984
61.339686221724556
1236.1343221589534
99.28093454346552
409.7310703566992
184.6805992076931
20.39944418539973
92.99097887976527
5.898404808022718
32.66654912575681
308.83809084597647
148.10893285842604
67.56383006279671
68.73380787351229
124.4877817289667
90.78698124219818
432.985846836072
36.70323318830047
241.9268198840017
26.45449171969934
5.163687783515876
168.22852074915352
386.88393666068185
178.12462923835596
89.93795864240327
43.48425653883487
48.30915781437138
230.49578776085107
384.27609066688143
467.2342327565854
72.31962707864301
394.3132227139944
510.33691995193584
50.550496917956394
91.7915526474632
42.76114441168591
180.47631203414844
6.260696881362375
1770.5910706765735
178.4338220582378
41.39150271151668
1369.506036491558
215.63602033159597
310.88181707841915
10.211433717978487
260.42892141834625
306.68866730154804
211.0157631562088
150.11529248183922
10.686489920121389
194.8477239025161
52.70974726166467
400.37036608012716
36.729240318481885
295.1737324287408
28.31837402994549
66.17343144503786
166.86370458488875
381.3644273585346
209.42683138593787
41.6913549034158
25.501338841421678
21.66610495566188
32.2032613888162
