# Column Metadata
COLUMN_NAME=stock_quantity
DATA_TYPE=INT
LENGTH=0
NOT_NULL=false
PRIMARY_KEY=false
UNIQUE=false
DEFAULT_VALUE=
AUTO_INCREMENT=false
# End Metadata
# Data starts below
340
45
205
959
919
221
754
987
903
618
527
750
590
28
135
985
418
991
179
356
985
546
275
121
550
233
498
205
797
289
64
405
715
705
580
470
824
272
817
66
886
413
200
536
880
663
552
510
428
837
447
908
486
948
137
255
380
581
814
981
80
644
664
169
18
942
653
454
104
903
926
217
526
47
472
665
192
234
372
561
355
219
325
690
578
342
194
215
421
186
718
290
666
287
272
819
699
979
568
739
755
120
670
298
715
477
152
506
638
138
790
856
274
62
699
372
385
575
529
639
923
849
550
477
46
245
834
930
820
547
280
902
772
464
547
747
748
64
959
896
752
240
576
401
262
200
496
270
97
129
895
947
190
99
246
417
759
843
495
585
771
737
636
822
717
701
297
90
161
782
399
810
569
663
228
959
66
81
226
642
138
844
776
842
387
993
607
321
823
675
561
976
909
691
32
714
953
456
739
96
258
919
384
30
137
604
747
602
36
727
356
682
17
547
16
155
145
441
869
390
173
847
109
986
656
813
194
281
135
465
432
454
986
35
994
975
899
691
181
410
997
219
49
427
726
502
287
975
984
574
124
353
579
604
818
441
311
80
225
678
417
55
119
438
853
318
864
842
450
243
484
736
436
932
339
434
252
341
451
399
862
821
891
882
149
433
739
970
932
42
144
316
940
163
694
623
529
328
534
524
751
248
924
186
148
270
111
971
307
242
683
848
754
257
211
946
804
293
795
78
406
409
982
486
169
556
444
273
933
268
643
402
69
933
201
644
124
556
467
80
62
82
241
943
861
631
674
369
592
56
16
85
66
805
288
119
645
33
221
934
690
317
179
296
408
580
965
51
983
144
31
852
640
943
175
345
568
105
785
990
903
92
571
121
497
64
362
465
61
13
937
67
417
53
249
779
180
127
875
33
626
483
515
775
621
873
886
64
382
97
930
985
84
189
403
262
430
745
533
748
753
451
500
748
438
291
600
422
71
366
299
973
895
982
304
373
218
299
200
792
126
632
787
248
293
143
448
773
274
187
168
598
680
39
74
236
855
101
793
497
770
869
988
571
462
921
338
165
75
869
988
438
90
37
126
922
903
347
448
406
798
816
131
190
408
524
640
821
928
886
264
760
599
780
681
959
715
883
710
537
223
332
689
493
527
469
911
676
243
81
597
492
873
413
687
278
501
699
710
583
443
747
278
500
644
604
549
586
470
69
94
118
25
973
599
75
514
408
545
334
11
403
478
529
902
547
556
460
269
824
556
175
876
225
974
119
922
713
889
29
133
452
422
811
472
216
969
415
210
447
954
435
494
609
972
912
873
861
83
355
323
895
76
623
497
893
338
873
930
313
17
240
537
748
49
848
948
940
394
156
28
480
740
674
598
550
948
823
972
561
612
267
121
425
365
35
694
976
952
764
29
853
497
15
424
465
838
658
634
773
920
198
550
794
510
688
320
173
483
281
841
428
924
435
732
828
329
16
459
103
933
441
136
561
469
498
500
34
380
143
959
640
126
43
965
515
710
692
97
582
207
582
134
759
310
184
298
565
500
183
412
608
843
340
530
773
615
979
705
54
381
327
962
261
674
557
812
834
284
551
935
505
299
776
798
403
704
773
812
706
429
874
939
705
257
485
638
679
536
533
102
332
298
784
518
541
613
520
87
843
137
200
158
953
669
868
489
25
620
738
864
856
158
850
217
900
603
182
691
777
199
649
192
270
246
713
131
278
581
588
721
980
751
913
86
431
105
433
225
983
937
669
394
445
897
784
804
502
382
687
702
965
429
88
159
154
470
491
670
889
317
732
539
520
748
34
193
439
686
149
246
772
195
643
474
388
339
646
46
233
243
212
389
758
238
278
36
808
86
918
451
722
802
286
889
455
656
905
512
366
303
568
634
87
14
878
807
673
541
592
999
452
549
603
972
194
393
376
12
133
204
700
32
986
357
651
912
517
955
453
939
276
250
517
509
613
184
313
404
770
364
429
488
590
96
365
713
110
117
10
418
71
423
920
591
112
121
761
899
488
991
260
51
33
410
100
628
826
373
497
711
502
750
350
286
662
980
926
518
903
924
492
933
738
703
632
126
150
876
877
835
822
721
991
454
831
272
242
967
39
439
569
134
978
914
661
396
796
579
963
841
666
861
306
93
350
263
188
487
922
758
815
886
827
469
679
515
95
741
472
710
827
887
313
290
41
287
685
573
667
133
477
394
476
437
711
347
934
436
14
180
899
842
565
364
545
319
369
490
679
878
928
372
974
360
302
852
812
964
791
810
120
478
646
250
912
821
336
834
535
498
810
887
261
558
705
400
19
704
736
823
237
648
602
586
694
12
261
111
725
468
148
96
950
399
494
992
190
181
54
139
229
728
554
944
682
201
779
566
604
31
891
719
839
166
178
520
579
110
91
931
71
406
787
597
381
143
710
499
703
68
343
454
556
530
689
447
782
361
543
974
948
482
791
36
378
827
649
426
787
652
795
725
215
12
710
266
770
445
628
282
998
916
471
881
350
194
270
217
439
780
486
510
910
477
312
624
825
377
259
784
708
836
804
481
293
948
307
312
640
827
950
966
229
455
557
913
725
213
687
589
57
619
307
713
467
578
868
188
788
150
991
47
295
361
240
641
235
268
572
829
571
447
781
134
152
210
908
113
415
386
22
480
755
971
795
824
389
332
260
87
794
343
662
108
93
561
376
316
276
804
284
811
862
992
193
268
863
159
533
234
337
909
635
616
137
842
533
308
683
425
38
39
747
737
142
802
329
593
697
882
640
481
542
820
274
901
495
440
189
644
605
90
122
643
708
247
989
971
486
164
224
146
86
807
729
92
821
575
101
820
658
507
322
974
168
290
940
444
69
188
115
733
153
35
184
967
169
225
157
648
919
855
881
949
296
463
122
461
39
742
230
88
444
456
524
626
973
37
854
755
843
640
806
230
467
586
752
813
306
286
953
646
819
753
947
583
791
420
83
650
184
419
255
990
960
919
731
500
971
710
498
661
952
835
407
440
893
586
334
786
628
984
989
302
26
689
408
353
468
440
579
51
995
522
34
468
885
960
892
997
212
144
80
353
894
148
803
447
53
111
909
18
665
398
564
702
435
364
108
662
921
911
404
350
937
934
912
78
362
181
674
242
474
930
419
105
882
139
116
530
826
820
707
285
60
448
930
674
298
609
507
341
659
621
639
340
614
391
173
614
301
442
866
714
293
624
503
602
436
926
810
216
872
254
650
889
530
108
895
496
744
885
891
535
905
752
440
643
31
689
872
430
486
700
77
647
288
574
507
921
841
275
315
503
897
327
261
471
375
989
302
752
405
35
321
858
492
887
495
718
172
829
130
908
910
553
202
289
541
298
657
227
984
35
951
78
815
790
93
974
718
660
385
303
932
824
759
821
985
806
799
672
524
291
631
34
612
756
418
38
650
154
599
285
232
220
820
834
917
781
603
847
11
523
56
312
114
47
240
890
220
255
404
707
453
997
644
999
61
46
973
960
867
418
812
530
265
79
439
434
65
219
52
783
744
962
482
539
629
795
645
739
134
429
673
743
892
105
353
246
455
401
834
785
325
611
838
14
337
828
884
329
830
678
573
105
617
871
68
139
241
316
661
822
836
499
492
286
144
210
175
81
837
159
800
532
580
38
948
290
884
722
200
831
431
677
750
257
29
103
286
107
446
40
950
994
396
874
826
30
106
733
672
588
430
535
784
240
20
718
117
481
512
297
305
779
830
674
19
935
498
309
35
374
948
165
180
991
234
47
924
165
343
505
188
552
802
873
844
485
492
146
456
837
849
779
588
807
247
78
892
393
366
965
631
585
427
977
877
34
274
455
840
719
252
421
664
537
845
470
125
297
720
643
379
885
248
660
115
816
434
102
796
756
572
628
845
266
766
614
555
133
936
164
404
549
282
186
782
523
410
664
555
873
580
707
346
430
467
687
931
10
333
989
337
602
407
167
806
497
733
192
950
162
694
451
279
970
233
182
684
268
963
342
262
832
209
555
203
882
528
332
144
102
165
584
521
20
682
153
106
842
828
323
45
94
95
308
415
939
844
723
807
292
932
219
811
79
52
986
750
998
687
482
794
556
827
789
215
387
784
25
611
183
253
446
154
510
265
164
736
52
893
318
860
351
637
179
414
861
751
997
405
966
616
645
752
175
784
982
620
871
23
174
763
332
924
615
988
570
195
712
326
356
923
403
434
272
872
312
490
461
539
346
263
909
38
384
462
838
103
133
543
714
839
743
104
866
318
207
126
704
827
898
988
641
600
845
745
149
585
446
75
856
704
505
712
701
148
334
915
130
691
913
552
584
550
58
836
807
707
640
840
898
204
403
535
66
250
287
440
334
778
459
135
797
794
500
334
242
484
761
225
181
571
348
497
218
250
733
135
656
697
127
260
616
733
548
725
76
466
50
58
493
313
538
747
36
795
572
973
987
248
32
374
970
846
336
896
240
309
228
945
994
756
616
952
326
223
775
190
932
350
675
704
328
644
289
140
374
716
678
116
24
810
679
440
622
242
173
825
379
40
233
537
660
497
661
385
167
755
26
133
701
877
83
212
926
426
254
115
37
946
135
183
310
195
305
742
809
241
457
499
926
862
621
569
42
915
647
166
742
41
423
120
140
953
759
483
107
398
651
345
874
530
140
25
521
26
888
188
310
930
614
261
529
916
848
292
199
473
457
825
539
498
354
492
483
873
347
516
555
710
334
88
230
815
699
613
547
626
776
726
214
556
768
607
102
255
795
558
773
569
995
880
998
922
388
241
447
318
455
929
579
171
131
208
128
541
68
816
49
304
864
942
135
339
472
911
365
730
971
625
785
429
443
175
71
294
122
370
908
456
64
800
776
302
74
558
27
117
766
631
669
49
398
198
284
330
677
80
843
700
944
909
459
743
217
299
630
612
973
509
23
626
578
826
173
259
27
904
789
49
765
360
48
260
804
628
977
677
898
597
331
334
390
631
188
227
341
785
320
585
562
813
677
971
380
538
538
727
151
920
97
466
341
133
90
593
705
841
213
139
405
413
65
711
807
774
590
255
184
566
128
598
414
96
545
995
298
669
382
512
804
954
750
231
516
701
662
444
645
372
594
902
447
799
379
930
248
997
271
528
144
14
24
269
29
858
523
631
720
530
581
749
291
299
185
325
50
823
351
45
709
894
745
103
484
951
798
335
779
771
107
373
42
270
745
75
305
117
171
679
71
799
299
190
344
518
711
557
193
714
230
692
603
548
307
332
988
47
293
15
550
98
278
770
647
833
694
158
951
272
924
322
946
522
217
714
745
167
275
865
479
744
908
152
930
584
171
737
406
569
561
588
414
387
737
910
766
254
175
284
615
148
700
73
351
637
594
373
683
781
189
212
192
706
149
506
660
56
270
589
829
292
746
211
751
533
77
15
22
981
112
845
979
126
921
434
738
303
630
523
316
916
444
968
885
552
970
535
961
946
496
352
519
191
928
395
416
864
691
927
687
184
396
45
264
953
334
97
402
677
970
326
146
836
77
348
79
604
193
529
59
723
262
604
105
714
394
777
240
1000
907
356
242
552
790
119
455
526
317
869
239
409
662
958
286
201
96
891
91
39
189
576
884
442
203
914
110
37
495
354
674
669
468
817
927
176
428
405
590
582
940
596
921
778
910
431
929
671
937
135
952
650
665
727
446
688
433
437
424
868
265
852
751
221
746
354
108
693
544
742
809
665
999
854
12
299
945
611
49
777
790
406
520
797
866
322
402
501
995
21
805
208
473
768
271
202
105
456
41
917
106
746
342
71
865
662
607
697
885
114
30
348
410
583
79
886
795
41
663
413
535
613
344
744
858
930
64
139
376
374
894
707
484
502
767
518
218
409
999
829
320
749
95
914
355
941
223
918
868
390
724
741
713
620
272
863
116
933
474
407
911
871
916
390
244
98
297
951
636
630
501
783
597
101
742
171
839
434
771
911
418
103
992
352
764
571
811
419
223
267
835
657
839
406
153
299
494
522
742
947
724
567
683
83
540
218
926
411
320
757
408
587
843
783
776
642
339
639
116
344
796
80
310
12
315
873
352
459
46
958
130
569
314
375
665
581
868
920
248
803
574
32
140
520
199
659
36
595
531
606
316
745
231
179
333
181
114
184
910
14
391
104
865
335
763
472
965
386
964
303
780
710
73
57
911
214
889
901
498
555
46
669
352
777
25
791
494
502
590
717
549
989
243
862
53
600
651
202
143
513
786
250
123
465
767
714
843
341
27
51
728
519
83
628
758
496
906
38
673
738
430
759
97
46
250
711
531
327
142
673
261
534
972
208
905
110
690
543
314
608
937
286
487
517
198
949
575
835
432
809
49
395
51
132
201
16
35
575
305
227
913
346
878
482
533
868
238
424
114
805
247
855
178
443
960
365
415
179
44
919
696
101
71
219
456
711
560
825
519
815
394
792
499
533
910
825
600
819
779
881
200
310
292
586
919
615
976
728
847
757
804
701
759
993
234
312
425
632
351
905
591
565
65
224
201
252
488
45
92
955
449
834
553
845
408
746
648
853
477
990
52
218
137
473
658
378
263
427
637
801
591
686
56
290
396
140
263
532
850
350
920
237
468
867
218
171
820
642
677
83
902
787
857
766
608
835
42
677
120
174
548
466
546
938
584
442
654
728
588
463
457
39
103
526
32
225
241
111
674
872
330
25
942
436
637
630
498
902
823
643
517
253
904
489
42
937
102
268
771
822
189
303
514
458
193
514
221
711
958
21
503
556
78
298
787
796
732
975
109
106
756
90
102
781
244
530
